x04m01e2t1tp6
3358
3358
3358
3358
3358
3358
3358
3358
3358
3358
3358
3358
3358
3358
3358
3358
3358
3358
3358
3358
3358
3358
3358
3358
3358
3358
3358
3358
3358
3358
3358
3437
3437
3437
3437
3437
3437
3437
3437
3465
3465
3465
3465
3509
3509
3526
3526
3526
3526
3526
3526
3526
3526
3582
3582
3582
3582
3582
3582
3582
3582
3582
3582
3582
3582
3582
3582
3582
3582
3582
3582
3582
3582
3582
3582
3582
3582
3582
3582
3582
3582
3582
3582
3582
3582
3582
3582
3582
3582
3582
3582
3582
3582
3582
3582
3582
3582
3582
3582
3582
3582
3582
3582
3582
3582
3582
3582
3582
3582
3582
3582
3582
3582
3582
3582
3582
3582
3582
3582
3582
3582
3582
3582
3582
3582
3582
3582
3582
3582
3582
3582
3582
3582
3582
3582
3582
3582
3582
3582
3582
3582
3582
3582
3582
3582
3582
3582
3582
3582
3582
3582
3582
3582
3582
3582
3618
3618
3618
3618
3618
3618
3618
3618
3618
3618
3618
3618
3618
3618
3618
3618
3618
3618
3618
3636
3636
3648
3648
3648
3648
3648
3648
3648
3648
3648
3648
3648
3648
3648
3648
3648
3648
3648
3705
3705
3705
3705
3705
3705
3705
3705
3705
3705
3705
3705
3705
3705
3705
3705
3705
3705
3705
3705
3705
3705
3705
3705
3705
3705
3705
3705
3705
3705
3705
3705
3705
3735
3735
3739
3739
3739
3739
3758
3758
3758
3758
3758
3758
3758
3758
3758
3758
3758
3758
3758
3758
3758
3758
3758
3758
3758
3758
3758
3758
3758
3758
3758
3758
3758
3758
3758
3758
3773
3828
3828
3828
3828
3828
3828
3828
3828
3828
3828
3828
3828
3828
3828
3828
3828
3828
3828
3828
3828
3828
3828
3828
3828
3828
3828
3828
3828
3828
3828
3828
3828
3828
3828
3828
3828
3828
3828
3828
3828
3828
3828
3828
3828
3828
3828
3828
3828
3828
3828
3828
3828
3828
3828
3828
3828
3828
3828
3828
3828
3828
3828
3828
3828
3828
3828
3828
3828
3828
3828
3828
3828
3828
3828
3828
3828
3828
3828
3828
3828
3828
3828
3828
3828
3828
3828
3828
3958
3958
3958
3958
3958
3958
3958
3958
3958
3958
3958
3958
3958
3958
3958
3958
3958
3958
3958
3958
3958
3958
3958
3958
3958
3958
3958
3958
3958
3958
3958
3958
3958
3958
3958
3958
3958
3958
3958
3958
3958
3958
3958
3958
3958
3958
3958
3958
3958
3958
3958
3958
3958
3958
3958
3958
3958
3958
3958
3958
3958
3958
3958
3958
3958
3958
3958
3958
3958
3958
3958
3958
3958
3958
3958
3958
3958
3958
3958
3958
3958
3958
3958
3958
3958
3958
3958
3958
3958
3958
3958
3958
3958
3958
3958
3958
3958
3958
3958
3958
3958
3958
3958
3958
3958
3958
3958
3958
3958
3958
3958
3958
3958
3958
3958
3958
3958
3958
3958
3958
3958
3958
3958
3958
3958
3958
3958
3958
3958
3958
3958
3958
3958
3958
3958
3958
3958
3958
3958
3958
3958
3958
3958
3958
3958
3958
3958
3958
3958
3958
3958
3958
3958
3958
3958
3958
3958
3958
3958
3958
3958
3958
3958
3958
3958
3958
3958
3958
3958
3958
3958
3958
3958
3958
3958
3958
3958
3958
3958
3958
3958
3958
3958
3958
3958
3958
3958
3958
3958
3958
3958
3958
3958
3958
3958
3958
3958
3958
3958
3958
3958
3958
3958
3958
3958
3958
3958
3958
3958
3958
3958
3958
3958
3958
3958
3958
3958
3958
3958
3958
3958
3958
3958
3958
3958
3958
3958
3958
3958
3958
3958
3958
3958
3958
3958
3958
3958
3958
3958
3958
3958
3958
3958
3958
3958
3958
3958
3958
3958
3958
3958
3958
3958
3958
3958
3958
3958
3958
3958
3958
3958
3958
3958
3958
3958
3958
3958
3958
3958
3958
3958
3958
3958
3958
3958
3958
3958
3958
3958
3958
3958
3958
3958
3958
3958
3958
3958
3958
3958
3958
3958
3958
3958
3958
3958
3958
3958
3958
3958
3958
3958
3958
3958
3958
3958
3958
3958
3958
3958
3958
3958
3958
3958
3958
3958
3958
3958
3958
3958
3958
3958
3958
3958
3958
3958
3958
3958
3958
3958
3958
3958
3958
3958
3958
3958
3958
3958
3958
3958
3958
3958
3958
3958
3958
3958
3958
3958
3958
3958
3958
3958
3958
3958
3958
3958
3958
3958
3958
3958
3958
3958
3958
3958
3959
3959
3959
3959
3959
3959
3959
3959
3959
3959
3959
3959
3959
3959
3959
3959
3959
3959
3959
3959
3959
3959
3959
3959
3959
3959
3959
3959
3959
3959
3959
3959
3959
3959
3959
3959
3959
3959
3959
3959
3959
3959
3959
3959
3959
3959
3959
3959
3959
3959
3959
3959
3959
3959
3959
3959
3959
3959
3959
3959
3959
3959
3959
3959
3959
3959
3959
3959
3959
3959
3959
3959
3959
3959
3959
3959
3959
3959
3959
3959
3959
3959
3959
3959
3959
3959
3959
3959
3959
3959
3959
3959
3959
3959
3959
3959
3959
3959
3959
3959
3959
3959
3959
3959
3959
3959
3959
3959
3959
3959
3959
3959
3959
3959
3959
3959
3959
3959
3959
3959
3959
3959
3959
3959
3959
3959
3959
3959
3959
3959
3959
3959
3959
3959
3959
3959
3959
3959
3959
3959
3959
3959
3959
3959
3959
3959
3959
3959
3959
3959
3959
3959
3959
3959
3959
3959
3959
3959
3959
3959
3959
3959
3959
3959
3959
3959
3959
3959
3959
3959
3959
3959
3959
3959
3959
3959
3959
3959
3959
3959
3959
3959
3959
3959
3959
3959
3959
3959
3959
3959
3959
3959
3959
3959
3959
3959
3959
3959
3959
3959
3959
3959
3959
3959
3959
3959
3959
3959
3959
3959
3959
3959
3959
3959
3959
3968
3968
3968
3968
3968
3968
3968
3968
3968
3968
3968
3968
3968
3968
3968
3968
3968
3968
3968
3968
3968
3968
3968
3968
3968
3968
3968
3968
3968
3968
3968
3968
3968
3968
3968
3968
3968
3968
3968
3968
3968
3968
3968
3968
3968
3968
3968
3968
3968
3968
3968
3984
3984
3984
3984
3984
3984
3984
3984
3984
3984
3984
3984
3984
3984
3984
3984
3984
3984
3984
3984
3984
